750
125 125
1 87 855
2 87 359
3 87 977
4 87 960
5 87 267
6 87 821
7 87 339
8 87 928
9 87 702
10 87 618
11 87 968
12 86 1000
13 86 985
14 86 939
15 86 55
16 86 513
17 86 535
18 86 839
19 86 8
20 86 324
21 86 358
22 86 904
23 86 296
24 85 476
25 85 638
26 85 101
27 85 958
28 85 470
29 85 496
30 85 739
31 85 192
32 85 383
33 85 500
34 85 372
35 85 350
36 85 627
37 84 865
38 84 912
39 84 418
40 84 194
41 84 979
42 84 145
43 84 691
44 84 320
45 84 908
46 84 843
47 84 40
48 83 447
49 83 3
50 83 352
51 83 996
52 83 255
53 83 645
54 83 653
55 83 473
56 83 654
57 83 662
58 83 675
59 83 666
60 83 491
61 82 229
62 82 837
63 82 431
64 82 222
65 82 800
66 82 248
67 82 223
68 82 198
69 82 358
70 82 52
71 82 446
72 82 992
73 82 819
74 82 613
75 82 829
76 82 346
77 81 161
78 81 61
79 81 440
80 81 89
81 81 850
82 81 892
83 81 126
84 81 797
85 81 651
86 81 630
87 81 798
88 81 11
89 80 124
90 80 138
91 80 478
92 80 488
93 80 220
94 80 546
95 80 598
96 80 135
97 80 362
98 80 464
99 79 198
100 79 760
101 79 102
102 79 912
103 79 840
104 79 266
105 79 838
106 79 533
107 79 158
108 79 303
109 79 507
110 79 444
111 79 220
112 79 27
113 79 295
114 78 229
115 78 959
116 78 83
117 78 462
118 78 858
119 78 285
120 78 97
121 78 970
122 78 580
123 78 383
124 78 606
125 77 688
126 77 831
127 77 477
128 77 328
129 77 424
130 77 345
131 77 815
132 77 823
133 77 365
134 76 269
135 76 641
136 76 587
137 76 655
138 76 105
139 76 456
140 76 285
141 76 274
142 76 144
143 76 801
144 76 438
145 76 727
146 75 611
147 75 647
148 75 589
149 75 660
150 75 283
151 75 684
152 75 548
153 75 875
154 75 141
155 75 281
156 75 72
157 74 227
158 74 811
159 74 299
160 74 965
161 74 700
162 74 170
163 74 317
164 74 679
165 73 80
166 73 672
167 73 36
168 73 986
169 73 296
170 73 403
171 73 488
172 73 281
173 73 658
174 73 697
175 73 790
176 73 303
177 73 839
178 73 303
179 73 193
180 73 627
181 73 841
182 73 677
183 72 59
184 72 572
185 72 877
186 72 750
187 72 556
188 72 142
189 72 190
190 72 161
191 72 559
192 71 560
193 71 367
194 71 64
195 71 977
196 71 93
197 71 238
198 71 567
199 71 594
200 71 632
201 71 4
202 71 556
203 71 460
204 70 286
205 70 239
206 70 712
207 70 248
208 70 261
209 70 187
210 70 675
211 70 298
212 70 397
213 70 933
214 70 808
215 70 734
216 69 691
217 69 250
218 69 205
219 69 715
220 69 228
221 69 851
222 69 340
223 69 479
224 69 325
225 69 117
226 69 958
227 69 180
228 68 30
229 68 166
230 68 901
231 68 524
232 68 274
233 68 572
234 68 882
235 68 670
236 68 888
237 67 849
238 67 486
239 67 191
240 67 985
241 67 588
242 67 62
243 67 993
244 67 218
245 67 613
246 67 40
247 67 452
248 67 501
249 66 298
250 66 87
251 66 637
252 66 700
253 66 626
254 66 298
255 66 600
256 66 748
257 66 609
258 65 953
259 65 199
260 65 591
261 65 130
262 65 471
263 65 775
264 65 728
265 65 601
266 65 895
267 65 919
268 65 289
269 64 913
270 64 521
271 64 543
272 64 236
273 64 980
274 64 48
275 64 343
276 64 414
277 64 373
278 64 349
279 64 843
280 64 423
281 63 592
282 63 218
283 63 201
284 63 398
285 63 855
286 63 706
287 63 408
288 63 960
289 63 35
290 63 715
291 63 639
292 63 16
293 63 354
294 63 334
295 63 748
296 63 20
297 63 368
298 63 315
299 63 278
300 63 986
301 62 653
302 62 54
303 62 300
304 62 171
305 62 25
306 62 596
307 62 420
308 62 48
309 62 261
310 61 153
311 61 20
312 61 991
313 61 242
314 61 380
315 61 602
316 61 811
317 61 820
318 61 29
319 61 250
320 61 636
321 61 896
322 61 412
323 60 317
324 60 669
325 60 208
326 60 967
327 60 349
328 60 536
329 60 216
330 60 137
331 60 905
332 60 211
333 60 979
334 60 167
335 60 125
336 60 860
337 60 879
338 60 976
339 59 609
340 59 430
341 59 167
342 59 971
343 59 190
344 59 808
345 59 301
346 59 457
347 59 666
348 59 424
349 59 243
350 59 372
351 59 602
352 58 812
353 58 291
354 58 607
355 58 304
356 58 177
357 58 505
358 58 861
359 58 935
360 58 536
361 58 898
362 58 99
363 58 709
364 58 194
365 58 829
366 58 587
367 58 289
368 58 605
369 57 895
370 57 434
371 57 528
372 57 869
373 57 756
374 57 243
375 57 533
376 57 299
377 57 708
378 56 200
379 56 43
380 56 297
381 56 199
382 56 852
383 56 288
384 56 286
385 56 839
386 56 554
387 56 768
388 56 437
389 56 984
390 56 510
391 56 668
392 56 817
393 56 106
394 56 679
395 56 921
396 55 531
397 55 310
398 55 233
399 55 181
400 55 996
401 55 159
402 55 903
403 55 114
404 55 557
405 55 194
406 54 536
407 54 580
408 54 91
409 54 792
410 54 677
411 54 234
412 54 465
413 54 662
414 54 268
415 54 999
416 53 2
417 53 443
418 53 305
419 53 718
420 53 436
421 53 349
422 53 846
423 53 634
424 53 36
425 53 867
426 53 847
427 53 684
428 53 176
429 53 300
430 52 350
431 52 647
432 52 92
433 52 473
434 52 100
435 52 691
436 52 409
437 51 131
438 51 128
439 51 650
440 51 634
441 51 48
442 51 380
443 51 196
444 51 546
445 51 949
446 51 603
447 50 437
448 50 739
449 50 396
450 49 308
451 49 924
452 49 609
453 49 483
454 49 242
455 49 51
456 49 644
457 49 589
458 49 984
459 49 511
460 49 47
461 49 181
462 49 560
463 49 93
464 49 587
465 48 789
466 48 892
467 48 434
468 48 6
469 48 769
470 48 849
471 48 242
472 48 318
473 47 530
474 47 344
475 47 471
476 47 338
477 47 353
478 47 633
479 46 470
480 46 792
481 46 409
482 46 343
483 46 465
484 46 105
485 46 520
486 46 388
487 46 201
488 46 623
489 46 667
490 46 604
491 45 24
492 45 747
493 45 835
494 45 103
495 45 303
496 45 209
497 45 786
498 45 528
499 45 904
500 45 764
501 44 846
502 44 1
503 44 424
504 44 528
505 44 837
506 44 803
507 44 782
508 44 88
509 44 716
510 44 312
511 44 175
512 44 287
513 44 764
514 44 765
515 44 81
516 43 175
517 43 298
518 43 569
519 43 469
520 43 892
521 43 264
522 43 798
523 43 301
524 43 397
525 43 398
526 43 940
527 43 333
528 43 677
529 42 907
530 42 531
531 42 252
532 42 749
533 42 350
534 42 975
535 42 349
536 42 785
537 42 301
538 42 162
539 42 202
540 42 348
541 42 40
542 41 499
543 41 874
544 41 853
545 41 242
546 41 325
547 41 912
548 41 892
549 41 441
550 41 698
551 41 721
552 41 181
553 41 514
554 41 507
555 41 692
556 41 134
557 41 373
558 41 612
559 40 718
560 40 747
561 40 90
562 40 960
563 40 109
564 40 186
565 40 62
566 40 661
567 40 339
568 40 638
569 40 303
570 39 765
571 39 607
572 39 548
573 39 411
574 39 715
575 39 248
576 39 351
577 39 72
578 39 737
579 39 507
580 39 206
581 39 211
582 39 579
583 38 9
584 38 548
585 38 686
586 38 594
587 38 234
588 38 349
589 38 960
590 38 581
591 38 147
592 38 408
593 38 621
594 38 298
595 38 456
596 37 507
597 37 306
598 37 910
599 37 822
600 37 957
601 36 298
602 36 454
603 36 237
604 36 292
605 36 768
606 36 112
607 36 284
608 35 100
609 35 948
610 35 476
611 35 581
612 35 277
613 35 695
614 35 418
615 35 928
616 35 664
617 35 337
618 35 719
619 35 734
620 34 320
621 34 820
622 34 444
623 34 481
624 34 950
625 34 207
626 34 619
627 34 162
628 34 472
629 33 393
630 33 518
631 33 358
632 33 579
633 33 662
634 33 956
635 33 62
636 32 958
637 32 527
638 32 901
639 32 976
640 32 54
641 32 991
642 32 779
643 32 419
644 32 573
645 32 656
646 32 269
647 32 797
648 31 943
649 31 255
650 31 136
651 31 278
652 31 639
653 31 620
654 31 572
655 31 714
656 31 766
657 31 44
658 31 419
659 31 569
660 31 117
661 31 880
662 31 596
663 30 604
664 30 641
665 30 926
666 30 595
667 30 740
668 30 364
669 30 753
670 30 187
671 30 35
672 30 869
673 30 402
674 30 459
675 30 457
676 30 512
677 30 797
678 30 629
679 29 662
680 29 680
681 29 406
682 29 320
683 29 431
684 29 468
685 29 684
686 29 652
687 29 731
688 29 424
689 29 446
690 29 237
691 29 461
692 29 269
693 29 378
694 29 668
695 29 281
696 29 280
697 29 123
698 29 913
699 28 381
700 28 348
701 28 905
702 28 214
703 28 882
704 28 443
705 28 952
706 28 351
707 28 832
708 28 446
709 28 635
710 28 475
711 28 551
712 28 670
713 28 545
714 27 618
715 27 290
716 27 778
717 27 227
718 27 74
719 27 43
720 27 859
721 27 401
722 27 393
723 27 959
724 27 983
725 26 487
726 26 575
727 26 359
728 26 784
729 26 749
730 26 67
731 26 155
732 26 753
733 26 775
734 26 39
735 26 91
736 25 782
737 25 166
738 25 172
739 25 506
740 25 758
741 25 896
742 25 327
743 25 489
744 25 472
745 25 760
746 25 685
747 25 490
748 25 90
749 25 803
750 25 6
